data/solutions/recovery/wellformed/moderate/binding/wellformed_moderate_instance64/30.sol
Elapsed time: 0.03
Upper bound: 4955.0
Planning weighted value: 129993.0
C[0]=4955.0
C[1]=4914.0
C[2]=4912.0
C[3]=4663.0
C[4]=0.0
y[0]=1
y[1]=3
y[2]=2
y[3]=1
y[4]=1
y[5]=1
y[6]=2
y[7]=1
y[8]=1
y[9]=0
y[10]=0
y[11]=0
y[12]=1
y[13]=1
y[14]=2
y[15]=3
y[16]=2
y[17]=2
y[18]=0
y[19]=1
y[20]=0
y[21]=2
y[22]=2
y[23]=3
y[24]=2
y[25]=0
y[26]=3
y[27]=1
y[28]=3
y[29]=3
y[30]=2
y[31]=3
y[32]=1
y[33]=3
y[34]=1
y[35]=1
y[36]=0
y[37]=2
y[38]=3
y[39]=0
y[40]=0
